1644219000
1644249805
1644391800
1644422400
1644822000
1644853440
1644995880
1645025400
1645170600
1645198200
1645428600
1645459200
1645601340
1645632300
1645689900
1643787000
1643815800
1643815800
1643817600
1645717380
1645776360
1645804560
1645861320
1645883040
